data/rand/rand_028.gr
p tdp 15 39
1 5
1 8
1 9
1 15
2 4
2 6
2 7
2 13
2 15
3 4
3 12
3 15
4 5
4 6
4 8
4 10
4 11
4 12
4 14
4 15
5 6
5 10
5 11
6 10
6 13
7 10
7 11
7 13
8 9
8 10
8 13
8 15
9 13
9 14
10 12
10 13
10 14
11 14
14 15
