solutions/best/rand/rand_028.sol
9
0
1
10
2
6
11
11
9
11
15
13
3
10
9
4
